k-points grid for integration in reciprocal space
0
Gamma
6 6 6
0 0 0