Ba Ti O3                                
   1.000     
     3.991    0.000    0.000
     0.000    3.991    0.000
     0.000    0.000    3.991
   Ba   Ti   O 
     1     1     3
Direct
  0.000  0.000  0.000
  0.500  0.500  0.500
  0.500  0.000  0.500
  0.000  0.500  0.500
  0.500  0.500  0.000