Ba Ti O3                                
   1.000    
     4.031    0.000    0.000
     0.000    3.983    0.000
     0.000    0.000    3.983
   Ba   Ti   O 
     1     1     3
Direct
  0.010  0.000  0.000
  0.522  0.500  0.500
  0.498  0.000  0.500
  0.992  0.500  0.500
  0.498  0.500  0.000