MgO                              
   6.000    
     0.000    0.351    0.351
     0.351    0.000    0.351
     0.351    0.351    0.000
   Mg   O 
     1     1
Direct
  0.500  0.500  0.500
  0.000  0.000  0.000