SYSTEM = Si diamond structure

### Parallelization

NCORE = 2

KPAR = 1

### SCF

ENCUT = 500
EDIFF = 1E-8
NELM = 60
ISYM = 2
ISTART = 0
ICHARG = 2

### Partial occupancies

ISMEAR = 0
SIGMA = 0.1

### Spin polarization
ISPIN = 1
