k-points grid for integration in reciprocal space
0
Gamma
    9 9 9
    0 0 0
