SrMnO3                                  
   7.585
     0.0    0.5    0.5
     0.5    0.0    0.5
     0.5    0.5    0.0
   Sr   Mn   O 
     2     2     6
Direct
  0.75  0.75  0.75
  0.25  0.25  0.25
  0.00  0.00  0.00
  0.50  0.50  0.50
  0.25  0.75  0.75
  0.75  0.75  0.25
  0.75  0.25  0.25
  0.75  0.25  0.75
  0.25  0.75  0.25
  0.25  0.25  0.75